
Gurobi 7.5.2 (linux64, Python) logging started Mon Dec 18 09:09:12 2017

Academic license - for non-commercial use only

Gurobi 7.5.2 (linux64, Python) logging started Mon Dec 18 09:12:43 2017

Academic license - for non-commercial use only

Gurobi 7.5.2 (linux64, Python) logging started Mon Dec 18 09:24:53 2017

Academic license - for non-commercial use only

Gurobi 7.5.2 (linux64, Python) logging started Mon Dec 18 09:34:31 2017

Academic license - for non-commercial use only

Gurobi 7.5.2 (linux64, Python) logging started Fri Dec 22 10:34:15 2017

Academic license - for non-commercial use only

Gurobi 7.5.2 (linux64, Python) logging started Fri Dec 22 10:37:10 2017

Academic license - for non-commercial use only

Gurobi 7.0.2 (linux64, Python) logging started Fri Dec 22 11:18:39 2017


Gurobi 7.5.2 (linux64, Python) logging started Fri Dec 22 11:51:06 2017

Academic license - for non-commercial use only

Gurobi 7.5.2 (linux64, Python) logging started Fri Dec 22 11:52:45 2017

Academic license - for non-commercial use only

Gurobi 7.5.2 (linux64, Python) logging started Fri Dec 22 15:07:55 2017

Academic license - for non-commercial use only

Gurobi 7.5.1 (mac64, Python) logging started Sun Dec 24 19:35:01 2017

Academic license - for non-commercial use only

Gurobi 7.5.2 (linux64, Python) logging started Tue Dec 26 02:27:18 2017

Academic license - for non-commercial use only
